# AMS_DATA (1)
# CELL written by CrystalMaker X (10.8.1) for Windows. 02 Feb 2023
#
%block LATTICE_ABC
ang
4.775400000000000  4.929200000000000  6.896900000000000
90.000000000000000  90.000000000000000  90.000000000000000
%endblock LATTICE_ABC

 
kpoints_mp_grid 4 4 3

%BLOCK EXTERNAL_PRESSURE
GPa
    0.0000000000    0.0000000000    0.0000000000
                    0.0000000000    0.0000000000
                                    0.0000000000
%ENDBLOCK EXTERNAL_PRESSURE

%block POSITIONS_FRAC
   Mg             0.514100000000000       0.556000000000000       0.250000000000000
   Mg             0.014100000000000       0.944000000000000       0.750000000000000
   Mg             0.485900000000000       0.444000000000000       0.750000000000000
   Mg             0.985900000000000       0.056000000000000       0.250000000000000
    O             0.102800000000000       0.466000000000000       0.250000000000000
    O             0.602800000000000       0.034000000000000       0.750000000000000
    O             0.897200000000000       0.534000000000000       0.750000000000000
    O             0.397200000000000       0.966000000000000       0.250000000000000
    O             0.196100000000000       0.201400000000000       0.553100000000000
    O             0.696100000000000       0.298600000000000       0.446900000000000
    O             0.803900000000000       0.798600000000000       0.053100000000000
    O             0.303900000000000       0.701400000000000       0.946900000000000
    O             0.803900000000000       0.798600000000000       0.446900000000000
    O             0.303900000000000       0.701400000000000       0.553100000000000
    O             0.196100000000000       0.201400000000000       0.946900000000000
    O             0.696100000000000       0.298600000000000       0.053100000000000
   Si             0.500000000000000       0.000000000000000       0.500000000000000
   Si             0.000000000000000       0.500000000000000       0.500000000000000
   Si             0.500000000000000       0.000000000000000       0.000000000000000
   Si             0.000000000000000       0.500000000000000       0.000000000000000
%endblock POSITIONS_FRAC

